1859570
95,40,68,17,74,30,76,73,47,85,57,60,4,84,2,26,1,41,81,66,87,79,75,49,37,15,14,82,96,63,88,7,52,34,35,71,54,43,61,67,62,56,32,46,0,44,3,83,6,98,12,31,36,69,59,8,94,38,86,65,80,13,16,39,18,89,22,97,53,45,70,33,27,91,10,64,42,72,78,28,50,24,77,25,93,11,58,23,51,21,92,5,90,48,9,20,19,29,55
